26 26
22
3 3   4 5 
3 4   4 8 
3 5   4 0 
3 6   23 20
3 7   10 0 
3 8   23 0 
3 9   13 17
3 10  20 0 
3 11  7 0 
3 12  23 8 
3 14  4 12
3 15  7 11
3 16  20 10
3 17  13 0 
3 19  10 7 
4 3   0 9 
4 4   0 0 
4 5   0 4 
4 7   16 0 
4 8   16 18
4 11  16 7 
4 14  0 12
